c turning on binary mode checking
c parsing input formula with 2610401 variables and 9433555 clauses
c finished parsing, read 157141 bytes from proof file
c detected empty clause; start verification via backward checking
c 389 of 9433555 clauses in core                            
c 24 of 4070 lemmas in core using 484 resolution steps
c 0 RAT lemmas in core; 0 redundant literals in core lemmas
s VERIFIED
c verification time: 13.727 seconds
